c --- [ banner ] -------------------------------------------------------------
c 
c CaDiCaL Radically Simplified CDCL SAT Solver
c Copyright (c) 2016-2021 A. Biere, M. Fleury, N. Froleyks
c 
c Version 1.5.2 a5f15211db36c3956764e18194dd5bd63bf3b5e6
c g++ (GCC) 9.3.0 -Wall -Wextra -O3 -DNDEBUG
c Fri Oct 21 01:27:37 EDT 2022 Linux gra-login3 3.10.0-1160.66.1.el7.x86_64 x86_64
c 
c --- [ limit ] --------------------------------------------------------------
c 
c setting conflict limit to 200000 conflicts (due to '200000')
c 
c --- [ parsing input ] ------------------------------------------------------
c 
c reading DIMACS file from '33.cubes162.adj'
c opening file to read '33.cubes162.adj'
c found 'p cnf 6160 1595465' header
c parsed 1595465 clauses in 16.58 seconds process time
c closing file '33.cubes162.adj'
c after reading 1457566709 bytes 1390.0 MB
c 
c --- [ options ] ------------------------------------------------------------
c 
c all options are set to their default value
c 
c --- [ solving ] ------------------------------------------------------------
c 
c time measured in process time since initialization
c 
c  seconds    reductions  redundant   irredundant
c          MB     restarts       trail       variables
c            level   conflicts       glue         remaining
c 
c * 16.58 1373  0 0   0    0    0  0% 0 1595422 2331 38%
c { 17.71 1429  0 0   0    0    0  0% 0 1595422 2331 38%
c i 19.39 1469 641 0   3   34   32 33% 4 1595422 2324 38%
c i 19.85 1473 374 0   9   62   54 32% 10 1595422 2323 38%
c i 19.85 1473 368 0   9   63   54 32% 9 1595422 2322 38%
c i 20.07 1476 328 0  12   72   61 31% 11 1595422 2321 38%
c i 20.10 1476 316 0  12   75   63 31% 12 1595422 2320 38%
c i 20.11 1476 312 0  13   76   63 31% 12 1595422 2319 38%
c i 20.20 1477 289 0  14   82   68 30% 12 1595422 2318 38%
c i 20.31 1477 268 0  17   91   74 30% 12 1595422 2317 38%
c i 20.33 1477 262 0  18   93   75 30% 12 1595422 2316 38%
c i 20.34 1477 257 0  18   95   76 30% 12 1595422 2315 38%
c i 20.34 1477 251 0  19   97   77 30% 12 1595422 2314 38%
c i 20.35 1477 246 0  19   99   78 30% 12 1595422 2313 38%
c i 20.38 1477 239 0  20  102   80 30% 13 1595422 2312 38%
c i 20.51 1478 220 0  24  116   91 30% 15 1595422 2311 38%
c i 20.52 1478 218 0  24  117   91 30% 15 1595422 2310 38%
c i 20.87 1480 185 0  31  143  112 29% 16 1595422 2309 37%
c i 21.18 1481 166 0  40  174  138 28% 21 1595422 2308 37%
c i 21.19 1481 164 0  40  176  139 28% 21 1595422 2307 37%
c 
c  seconds     reductions  redundant    irredundant
c          MB      restarts       trail        variables
c             level   conflicts       glue          remaining
c 
c i 21.30 1481 151 0  45  196  156 29% 21 1595422 2306 37%
c i 21.30 1481 150 0  45  197  156 28% 21 1595422 2305 37%
c i 21.31 1481 149 0  46  199  156 28% 21 1595422 2303 37%
c i 21.34 1481 149 0  46  201  156 28% 21 1595422 2299 37%
c i 21.59 1481 119 0  54  275  213 28% 21 1595422 2296 37%
c i 21.62 1481 114 0  54  291  228 28% 21 1595422 2295 37%
c - 24.66 1368 113 1  55  300  235 28% 21 109129 2295 37%
c i 24.99 1368 94 1  64  381  301 28% 21 109129 2294 37%
c i 25.03 1368 94 1  65  392  311 28% 22 109129 2293 37%
c i 25.04 1368 93 1  66  398  316 28% 22 109129 2292 37%
c i 25.12 1368 89 1  69  425  337 28% 21 109129 2283 37%
c i 25.14 1368 89 1  70  433  343 28% 22 109129 2282 37%
c i 25.14 1368 89 1  71  434  343 28% 22 109129 2281 37%
c i 25.28 1368 79 1  78  529  409 27% 21 109129 2280 37%
c i 25.29 1368 80 1  78  534  413 27% 21 109129 2279 37%
c i 25.50 1368 83 1  90  575  450 27% 23 109129 2278 37%
c i 25.52 1368 83 1  92  582  456 27% 23 109129 2277 37%
c i 25.95 1368 79 1 116  685  547 27% 24 109129 2276 37%
c i 26.19 1368 82 1 132  777  612 27% 25 109129 2275 37%
c i 26.20 1368 82 1 134  784  618 27% 25 109129 2274 37%
c 
c  seconds    reductions  redundant   irredundant
c          MB     restarts       trail       variables
c            level   conflicts       glue         remaining
c 
c i 26.22 1368 83 1 138  797  628 27% 25 109129 2273 37%
c i 26.39 1368 85 1 152  860  686 27% 26 109129 2272 37%
c i 26.54 1368 84 1 164  914  736 27% 27 109129 2271 37%
c - 26.71 1410 84 2 167  927  626 27% 27 108948 2271 37%
c i 26.72 1410 83 2 170  948  645 27% 27 108948 2270 37%
c i 26.74 1410 81 2 170  970  659 27% 26 108948 2269 37%
c } 26.77 1410 81 2 173 1000  685 27% 27 108948 2269 37%
c [ 26.77 1410  0 2 173 1000  685  0% 0 108948 2269 37%
c O 26.78 1410 56 2 173 1002  687 20% 49 108948 2269 37%
c i 26.78 1410 28 2 173 1004  688 17% 25 108948 2254 37%
c i 26.84 1410 16 2 173 1031  704 23% 12 108948 2253 37%
c i 26.85 1410 15 2 173 1034  706 23% 11 108948 2252 37%
c i 26.85 1410 17 2 173 1043  713 25% 13 108948 2251 37%
c i 26.86 1410 18 2 173 1051  720 26% 14 108948 2250 37%
c i 26.98 1410 27 2 173 1457 1027 30% 23 108948 2249 37%
c i 27.07 1410 26 2 173 1841 1236 31% 22 108948 2248 36%
c - 27.16 1409 26 3 173 1863  930 31% 22 108630 2248 36%
c ] 27.51 1409 23 3 174 3000 1590 30% 20 108630 2248 36%
c { 27.51 1409 81 3 174 3000 1590 27% 27 108630 2248 36%
c F 27.59 1409 81 3 176 3005 1593 38% 27 108630 2248 36%
c 
c  seconds    reductions  redundant   irredundant
c          MB     restarts       trail       variables
c            level   conflicts       glue         remaining
c 
c i 27.69 1409 78 3 182 3087 1660 40% 27 108630 2247 36%
c - 27.75 1370 78 4 187 3107 1180 38% 28 108627 2247 36%
c i 27.81 1370 78 4 199 3150 1222 40% 28 108627 2246 36%
c i 27.92 1370 77 4 225 3258 1312 40% 29 108627 2245 36%
c i 27.94 1370 76 4 233 3317 1354 42% 29 108627 2244 36%
c i 27.94 1370 75 4 233 3329 1362 42% 29 108627 2243 36%
c i 27.94 1370 75 4 233 3347 1374 42% 29 108627 2242 36%
c i 27.95 1370 74 4 233 3352 1378 42% 29 108627 2241 36%
c i 27.95 1370 74 4 233 3377 1395 41% 29 108627 2240 36%
c i 27.95 1370 74 4 233 3380 1397 41% 29 108627 2239 36%
c i 27.96 1370 73 4 233 3402 1417 41% 28 108627 2238 36%
c i 27.99 1370 67 4 233 3587 1526 44% 27 108627 2237 36%
c i 27.99 1370 66 4 233 3601 1531 44% 27 108627 2236 36%
c i 28.01 1370 66 4 238 3699 1597 43% 27 108627 2235 36%
c - 28.21 1371 49 5 238 4662 1534 47% 23 108593 2235 36%
c 2 28.40 1371 45 5 238 5000 2748 48% 22 108545 2224 36%
c p 29.45 1371 45 5 238 5000 7375 48% 22 108545 2178 35%
c d 29.58 1371 45 5 238 5000 7040 48% 22 108148 2176 35%
c # 29.79 1371 37 5 238 6007 7612 48% 19 108148 2176 35%
c - 29.93 1371 35 6 238 6526 2044 49% 19 108148 2176 35%
c 
c  seconds    reductions  redundant   irredundant
c          MB     restarts       trail       variables
c            level   conflicts       glue         remaining
c 
c } 29.94 1371 34 6 238 6584 2080 49% 19 108148 2176 35%
c 1 29.94 1371 34 6 238 6584 2080 49% 19 108148 2176 35%
c 
c --- [ writing output ] -----------------------------------------------------
c 
c writing simplified CNF to DIMACS file 'simp/33.cubes162.adj.simp1'
c * 29.94 1371 34 6 238 6584 2080 49% 19 108148 2176 35%
c opening file to write 'simp/33.cubes162.adj.simp1'
c writing 'p cnf 6160 108148' header
c closing file 'simp/33.cubes162.adj.simp1'
c after writing 42643823 bytes 40.7 MB
c wrote 108148 clauses in 0.28 seconds process time
c 
c --- [ writing extension ] --------------------------------------------------
c 
c writing extension stack to 'simp/33.cubes162.adj.ext1'
c opening file to write 'simp/33.cubes162.adj.ext1'
c closing file 'simp/33.cubes162.adj.ext1'
c after writing 12635 bytes 0.0 MB
c wrote 847 witnesses in 0.00 seconds process time
c 
c --- [ result ] -------------------------------------------------------------
c 
s SATISFIABLE
c 
c --- [ run-time profiling ] -------------------------------------------------
c 
c process time taken by individual solving procedures
c (percentage relative to process time for solving)
c 
c        16.58  124.18% parse
c        12.04   90.16% search
c        10.18   76.20% unstable
c         1.31    9.84% simplify
c         1.13    8.43% lucky
c         1.06    7.90% probe
c         0.74    5.53% stable
c         0.02    0.14% ternary
c   =================================
c        13.35   44.19% solve
c 
c last line shows process time for solving
c (percentage relative to total process time)
c 
c --- [ statistics ] ---------------------------------------------------------
c 
c chronological:              1397        21.22 %  of conflicts
c conflicts:                  6584       493.03    per second
c decisions:                 29430      2203.79    per second
c fixed:                       833        13.52 %  of all variables
c learned:                    6418        97.48 %  per conflict
c learned_lits:            1137798       100.00 %  learned literals
c minimized:                     0         0.00 %  learned literals
c shrunken:                 825450        72.55 %  learned literals
c minishrunken:              47147         4.14 %  learned literals
c propagations:            1086872         0.08 M  per second
c reduced:                    2369        35.98 %  per conflict
c rephased:                      3      2194.67    interval
c restarts:                    238        27.66    interval
c stabilizing:                   1        30.38 %  of conflicts
c substituted:                   7         0.11 %  of all variables
c subsumed:                   2118         0.07 %  of all clauses
c ternary:                    1017         0.48 %  of resolved
c weakened:                     14         2.00    average size
c 
c seconds are measured in process time for solving
c 
c --- [ resources ] ----------------------------------------------------------
c 
c total process time since initialization:        30.22    seconds
c total real time since initialization:           30.41    seconds
c maximum resident set size of process:         1481.28    MB
c 
c --- [ shutting down ] ------------------------------------------------------
c 
c exit 10
WARNING! DIMACS header mismatch: wrong number of variables.
============================[ Problem Statistics ]=============================
|                                                                             |
|  Number of variables:          6120                                         |
|  Number of clauses:          108148                                         |
|  Parse time:                   0.56 s                                       |
|  Simplification time:          0.01 s                                       |
|                                                                             |
============================[ Search Statistics ]====================================================
| Conflicts |          ORIGINAL         |          LEARNT          | Num Sols |      SUBGRAPHS      |
|           |    Vars  Clauses Literals |    Limit  Clauses Lit/Cl |          | Canonical Noncanon. |
=====================================================================================================
|       103 |    6018   108151  9234544 |     2000      103     66 |        0 |        25         3 |
|       253 |    6018   108151  9234544 |     2000      253    108 |        0 |        27         3 |
|       488 |    6018   108161  9234778 |     2000      488    109 |        0 |        33        13 |
|       834 |    6018   108170  9234943 |     2000      834    111 |        0 |        35        22 |
|      1366 |    6018   108196  9235732 |     2000     1366     99 |        0 |        56        48 |
|      2243 |    6018   108314  9238863 |     3602     1245     67 |        0 |        91       166 |
|      3411 |    6018   108343  9239581 |     3602     2413     91 |        0 |       119       195 |
|      5438 |    6018   108662  9245478 |     5002     2640     64 |        0 |       211       514 |
|      8184 |    6018   108846  9249548 |     6301     2885     50 |        0 |       274       698 |
|     12434 |    6018   109252  9257627 |     7560     3994     47 |        0 |       419      1104 |
|     18557 |    6018   109609  9263908 |     8783     6340     60 |        0 |       501      1461 |
|     28088 |    6018   110491  9278630 |    11204     6492     48 |        0 |       740      2343 |
|     41720 |    6018   111149  9291311 |    13606     8326     59 |        0 |      1106      3001 |
|     62925 |    6018   112893  9325048 |    16003    15328     63 |        0 |      1562      4745 |
|     94130 |    6018   114906  9355130 |    20804    10934     44 |        0 |      2034      6758 |
|    140181 |    6018   117168  9391054 |    24418    23999     74 |        0 |      2885      9020 |
|    209343 |    6018   120646  9452380 |    30417    26160     68 |        0 |      4561     12498 |
|    312542 |    6018   125319  9518737 |    37619    29161     60 |        0 |      6259     17171 |
|    466701 |    6018   131689  9618595 |    46025    39126     73 |        0 |      9074     23541 |
|    710110 |    6018   153415  9913582 |    56820    53930     64 |        0 |     14677     45267 |
|   1063129 |    6018   173909 10197244 |    70029    61558     77 |        0 |     22527     65761 |
|   1592250 |    6017   105691  7793710 |    84288    43538     55 |        0 |     36335     96094 |
=====================================================================================================
Number of solutions   : 0
Canonical subgraphs   : 52217          (23 /sec)
          order  3    : 1              (200000 /sec)
          order  4    : 1              (500000 /sec)
          order  5    : 1              (250000 /sec)
          order  6    : 1              (52632 /sec)
          order  7    : 2              (9950 /sec)
          order  8    : 4              (2052 /sec)
          order  9    : 8              (400 /sec)
          order 10    : 29             (108 /sec)
          order 11    : 117            (32 /sec)
          order 12    : 618            (20 /sec)
          order 13    : 3558           (22 /sec)
          order 14    : 21018          (25 /sec)
          order 15    : 24857          (23 /sec)
          order 16    : 1047           (18 /sec)
          order 17    : 681            (14 /sec)
          order 18    : 122            (14 /sec)
          order 19    : 108            (13 /sec)
          order 20    : 22             (15 /sec)
          order 21    : 22             (15 /sec)
          order 22    : 0              (-nan /sec)
Noncanonical subgraphs: 125766         (901 /sec)
          order  3    : 0              (-nan /sec)
          order  4    : 0              (-nan /sec)
          order  5    : 0              (-nan /sec)
          order  6    : 0              (-nan /sec)
          order  7    : 0              (-nan /sec)
          order  8    : 0              (-nan /sec)
          order  9    : 0              (-nan /sec)
          order 10    : 0              (-nan /sec)
          order 11    : 0              (-nan /sec)
          order 12    : 0              (-nan /sec)
          order 13    : 7412           (7087 /sec)
          order 14    : 84943          (1196 /sec)
          order 15    : 26917          (1243 /sec)
          order 16    : 6231           (149 /sec)
          order 17    : 241            (102 /sec)
          order 18    : 0              (-nan /sec)
          order 19    : 0              (-nan /sec)
          order 20    : 0              (-nan /sec)
          order 21    : 0              (-nan /sec)
Canonicity checking   : 2274.14 s
Noncanonicity checking: 139.528 s
Total canonicity time : 2413.67 s
database reductions   : 80
restarts              : 4092
conflicts             : 2080791        (682 /sec)
decisions             : 2648145        (0.00 % random) (867 /sec)
propagations          : 247988393      (81232 /sec)
conflict literals     : 217483164      (54.34 % deleted)
actual reward         : 0.103885
Memory used           : 161.00 MB
CPU time              : 3052.86 s

UNSATISFIABLE
